NAME : 10_3_3_1_(15).dat
COMMENT : Henke, Speranza, Wäscher, 2015
TYPE : MCVRP
DIMENSION : 11
EDGE_WEIGHT_TYPE : DISTANCE_MATRIX
CAPACITY : 1000
VEHICLES : 3
PRODUCT TYPES : 3
COMPARTMENTS : 3
NODE_COORD_SECTION
1 50 50
2 30.61 34.73
3 96.08 1.9
4 0.9 72.68
5 73.07 77.64
6 22.19 61.73
7 32.68 92.11
8 88.77 74.76
9 78.03 68.47
10 85.05 37.35
11 30.17 37.3
DEMAND_SECTION
1 0 0 0
2 0 494 0
3 44 0 0
4 120 0 0
5 117 0 0
6 95 0 0
7 0 0 163
8 141 0 0
9 220 0 0
10 87 0 0
11 0 0 166
DEPOT_SECTION
1
EOF